p cnf 5 27
3 -4 0
3 -5 -4 -2 0
3 5 -2 0
1 5 -2 0
3 -2 0
1 2 -4 -2 0
3 4 -4 0
2 -4 4 -1 0
-4 -1 -2 0
-3 0
3 -1 0
-4 5 0
2 0
-3 -1 0
-4 4 -3 -1 0
-4 -1 -2 0
-5 5 0
4 0
-3 0
-5 -3 0
3 -4 -3 -2 0
1 -3 0
3 -4 0
3 0
-3 0
4 5 0
1 4 -4 -3 0
